[runlim] version:		1.10
[runlim] time limit:		311040000 seconds
[runlim] real time limit:	600 seconds
[runlim] space limit:		14000 MB
[runlim] argv[0]:		python3
[runlim] argv[1]:		cp.py
[runlim] argv[2]:		TUD200.2
[runlim] start:			Tue Jan 20 18:23:48 2026
[runlim] main pid:		165123
[runlim] sample:		10.0 time, 10.1 real, 656.3 MB
Building CP model...
Solving CP Optimizer...
 ! --------------------------------------------------- CP Optimizer 22.1.1.0 --
 ! Minimization problem - 7728 variables, 713710 constraints
 ! Presolve      : 713912 extractables eliminated
 ! LogVerbosity         = Terse
 ! Initial process time : 5.84s (5.80s extraction + 0.04s propagation)
 !  . Log search space  : 7728.0 (before), 7728.0 (after)
 !  . Memory usage      : 97.9 MB (before), 97.9 MB (after)
 ! Using parallel search with 12 workers.
 ! ----------------------------------------------------------------------------
 !          Best Branches  Non-fixed    W       Branch decision
                        0       7728                 -
 + New bound is 0
[runlim] sample:		31.1 time, 20.1 real, 3321.7 MB
                        0       7728    1            -
 + New bound is 1
                     1378       6230    1   F     0 != l_478
 + New bound is 2
 *            47     4534  12.26s       6      (gap is 95.74%)
 *            46     7399  13.26s       1      (gap is 95.65%)
              46    11379       2081    1            -
 + New bound is 46 (gap is 0.00%)
 ! ----------------------------------------------------------------------------
 ! Search completed, 2 solutions found.
 ! Best objective         : 46 (optimal - effective tol. is 0)
 ! Best bound             : 46
 ! ----------------------------------------------------------------------------
 ! Number of branches     : 151521
 ! Number of fails        : 42689
 ! Total memory usage     : 2.5 GB (2.5 GB CP Optimizer + 0.0 GB Concert)
 ! Time spent in solve    : 14.60s (8.80s engine + 5.80s extraction)
 ! Search speed (br. / s) : 17218.3
 ! ----------------------------------------------------------------------------

FINAL SOLUTION:
{708, 470, 778, 540, 16, 254, 16, 254, 30, 268, 86, 324, 680, 442, 16, 254, 240, 478, 114, 352, 156, 394, 708, 470, 16, 254, 16, 254, 722, 484, 764, 526, 792, 554, 16, 254, 680, 442, 722, 484, 16, 254, 652, 414, 666, 428, 16, 254, 114, 352, 736, 498, 240, 478, 708, 470, 652, 414, 694, 456, 16, 254, 170, 408, 750, 512, 792, 554, 86, 324, 44, 282, 652, 414, 128, 366, 652, 414, 680, 442, 792, 554, 792, 554, 128, 366, 16, 254, 128, 366, 764, 526, 792, 554, 750, 512, 142, 380, 722, 484, 114, 352, 16, 254, 156, 394, 764, 526, 30, 268, 792, 554, 708, 470, 652, 414, 778, 540, 170, 408, 16, 254, 708, 470, 792, 554, 16, 254, 792, 554, 44, 282, 792, 554, 16, 254, 156, 394, 30, 268, 156, 394, 778, 540, 86, 324, 750, 512, 652, 414, 666, 428, 30, 268, 792, 554, 680, 442, 792, 554, 142, 380, 16, 254, 86, 324, 792, 554, 16, 254, 666, 428, 666, 428, 792, 554, 722, 484, 652, 414, 58, 296, 792, 554, 792, 554, 86, 324, 72, 310, 142, 380, 792, 554, 680, 442, 16, 254, 792, 554}
Number of labels used: 46
[runlim] end:			Tue Jan 20 18:24:17 2026
[runlim] status:		ok
[runlim] result:		0
[runlim] children:		229
[runlim] real:			29.26 seconds
[runlim] time:			98.67 seconds
[runlim] space:			5855.8 MB
[runlim] samples:		291
